29  29  29  29  -1  
20  20  20  20  -1  
13  13  13  13  -1  
25  25  25  25  -1  
18  18  18  18  -1  
31  31  31  31  -1  
25  25  25  25  -1  
36  36  36  36  -1  
27  27  27  27  -1  
22  22  22  22  -1  
24  24  24  24  -1  
34  34  34  34  -1  
22  22  22  22  -1  
17  17  17  17  -1  
33  33  33  33  -1  
